Version identifier: 12.10.0.0 | 2019-11-26 | 843d4de
CPXPARAM_WorkMem                                 16384
CPXPARAM_MIP_Limits_TreeMemory                   24576
Tried aggregator 2 times.
MIP Presolve modified 12 coefficients.
Aggregator did 20 substitutions.
Reduced MIP has 73 rows, 90 columns, and 345 nonzeros.
Reduced MIP has 90 binaries, 0 generals, 0 SOSs, and 0 indicators.
Presolve time = 0,00 sec. (0,43 ticks)
Found incumbent of value 225,000000 after 0,00 sec. (0,69 ticks)
Probing time = 0,00 sec. (0,10 ticks)
Tried aggregator 1 time.
Detecting symmetries...
MIP Presolve eliminated 9 rows and 0 columns.
MIP Presolve added 18 rows and 0 columns.
Reduced MIP has 82 rows, 90 columns, and 354 nonzeros.
Reduced MIP has 90 binaries, 0 generals, 0 SOSs, and 0 indicators.
Presolve time = 0,00 sec. (0,38 ticks)
Probing time = 0,00 sec. (0,10 ticks)
Clique table members: 235.
MIP emphasis: balance optimality and feasibility.
MIP search method: dynamic search.
Parallel mode: deterministic, using up to 16 threads.
Root relaxation solution time = 0,00 sec. (0,20 ticks)

        Nodes                                         Cuts/
   Node  Left     Objective  IInf  Best Integer    Best Bound    ItCnt     Gap

*     0+    0                          225,0000        0,0000           100,00%
*     0+    0                          169,0000        0,0000           100,00%
*     0+    0                          166,0000        0,0000           100,00%
*     0+    0                          163,0000        0,0000           100,00%
      0     0       78,2500    54      163,0000       78,2500       32   51,99%
*     0+    0                          157,0000       78,2500            50,16%
      0     0       78,8266    54      157,0000     Cuts: 120       57   49,79%
      0     0       79,8471    54      157,0000     Cuts: 120      108   49,14%
      0     0       81,5530    54      157,0000      Cuts: 63      140   48,06%
      0     0       82,1847    54      157,0000      Cuts: 57      159   47,65%
      0     0       82,5379    54      157,0000     Cuts: 104      192   47,43%
      0     0       82,8261    54      157,0000      Cuts: 42      219   47,24%
      0     0       83,3945    54      157,0000      Cuts: 70      253   46,88%
      0     0       83,6183    54      157,0000      Cuts: 46      272   46,74%
      0     0       83,9828    54      157,0000      Cuts: 62      300   46,51%
      0     0       84,2048    54      157,0000      Cuts: 65      341   46,37%
      0     0       84,5816    54      157,0000      Cuts: 44      382   46,13%
*     0+    0                          148,0000       84,5816            42,85%
      0     0       84,9162    54      148,0000      Cuts: 48      428   42,62%
      0     0       85,1123    54      148,0000      Cuts: 43      454   42,49%
      0     0       85,8121    54      148,0000      Cuts: 57      514   42,02%
      0     0       86,0709    54      148,0000      Cuts: 43      565   41,84%
      0     0       86,4299    54      148,0000      Cuts: 28      604   41,60%
      0     0       86,4778    54      148,0000      Cuts: 52      630   41,57%
*     0+    0                          147,0000       86,4778            41,17%
      0     0       86,7258    54      147,0000      Cuts: 42      673   41,00%
      0     0       86,9225    54      147,0000      Cuts: 58      721   40,87%
      0     0       87,3545    54      147,0000      Cuts: 41      779   40,58%
      0     0       87,5539    54      147,0000      Cuts: 41      815   40,44%
      0     0       87,9660    54      147,0000      Cuts: 57      872   40,16%
      0     0       88,1836    54      147,0000      Cuts: 75      907   40,01%
      0     0       88,2787    54      147,0000      Cuts: 47      945   39,95%
      0     0       88,3885    54      147,0000      Cuts: 28      991   39,87%
      0     0       88,4870    54      147,0000      Cuts: 33     1021   39,80%
      0     0       88,7028    54      147,0000      Cuts: 49     1063   39,66%
      0     0       88,9769    54      147,0000      Cuts: 45     1115   39,47%
      0     0       89,0783    54      147,0000      Cuts: 58     1153   39,40%
      0     0       89,1622    54      147,0000      Cuts: 35     1181   39,35%
      0     0       89,3496    54      147,0000      Cuts: 62     1228   39,22%
      0     0       89,4996    54      147,0000      Cuts: 30     1260   39,12%
      0     0       89,7037    54      147,0000      Cuts: 59     1296   38,98%
      0     0       89,7571    54      147,0000      Cuts: 28     1328   38,94%
      0     0       89,8442    54      147,0000      Cuts: 26     1352   38,88%
*     0+    0                          146,0000       89,8442            38,46%
      0     0        cutoff            146,0000      146,0000     1378    0,00%
Elapsed time = 0,19 sec. (97,60 ticks, tree = 0,01 MB, solutions = 8)

Clique cuts applied:  14
Cover cuts applied:  13
Mixed integer rounding cuts applied:  9
Zero-half cuts applied:  46
Gomory fractional cuts applied:  1

Root node processing (before b&c):
  Real time             =    0,19 sec. (97,61 ticks)
Parallel b&c, 16 threads:
  Real time             =    0,00 sec. (0,00 ticks)
  Sync time (average)   =    0,00 sec.
  Wait time (average)   =    0,00 sec.
                          ------------
Total (root+branch&cut) =    0,19 sec. (97,61 ticks)
